195
194
181
163
201
238
185
243
156
303
178
227
185
204
228
267
126
197
278
194
147
228
176
239
243
242
129
293
226
239
175
242
228
244
201
239
320
180
218
270
195
253
265
216
241
191
226
228
248
226
199
163
207
188
220
206
202
253
235
176
177
193
167
265
298
258
265
229
227
238
246
216
226
225
142
216
157
183
179
139
248
228
197
183
196
216
149
219
268
162
232
234
215
224
226
204
289
170
151
185
